c WMC file for PBN EPFL/random_control/dec_distill_EPFL/random_control/dec_miter written by probABC
p cnf 25 24
18 9 10 0
-18 -9 0
-18 -10 0
19 11 12 0
-19 -11 0
-19 -12 0
20 13 14 0
-20 -13 0
-20 -14 0
21 15 16 0
-21 -15 0
-21 -16 0
22 -20 -21 0
-22 20 0
-22 21 0
23 -18 -19 0
-23 18 0
-23 19 0
24 -22 -23 0
-24 22 0
-24 23 0
17 24 0
-17 -24 0
17 0
w 1 0.500000
w 2 0.500000
w 3 0.500000
w 4 0.500000
w 5 0.500000
w 6 0.500000
w 7 0.500000
w 8 0.500000
w 9 0.125000
w 10 0.125000
w 11 0.125000
w 12 0.125000
w 13 0.125000
w 14 0.125000
w 15 0.125000
w 16 0.125000
w 18 -1
w 19 -1
w 20 -1
w 21 -1
w 22 -1
w 23 -1
w 24 -1
w 17 -1
